==> OUTPUTLOG            = 1
==> GOMCUTS              = 0
==> SBESTIMATE           = 5
==> MUTEXCALLBACKS       = 0
==> HEUREMPHASIS         = 0
FICO Xpress v8.13.3, Hyper, solve started 22:59:44, Jun 20, 2022
Heap usage: 574KB (peak 574KB, 1589KB system)
Minimizing MILP xprs_265534c3270 using up to 12 threads, with these control settings:
OUTPUTLOG = 1
GOMCUTS = 0
SBESTIMATE = 5
MUTEXCALLBACKS = 0
HEUREMPHASIS = 0
Original problem has:
      2589 rows         1098 cols         8986 elements      1098 globals
Presolved problem has:
       781 rows          630 cols         3360 elements       630 globals
LP relaxation tightened
Presolve finished in 0 seconds
Heap usage: 1082KB (peak 2298KB, 1591KB system)

Coefficient range                    original                 solved        
  Coefficients   [min,max] : [ 1.00e+00,  1.00e+01] / [ 1.25e-01,  1.25e+00]
  RHS and bounds [min,max] : [ 1.00e+00,  5.10e+01] / [ 1.00e+00,  7.50e+00]
  Objective      [min,max] : [ 2.00e+00,  1.02e+02] / [ 2.00e+00,  9.76e+01]
Autoscaling applied standard scaling

Will try to keep branch and bound tree memory usage below 9.5GB
Starting concurrent solve with dual (1 thread)

 Concurrent-Solve,   0s
            Dual        
    objective   dual inf
 D  517.55467   .0000000
------- optimal --------
Concurrent statistics:
      Dual: 228 simplex iterations, 0.00s
Optimal solution found
 
   Its         Obj Value      S   Ninf  Nneg   Sum Dual Inf  Time
   228        517.554665      D      0     0        .000000     0
Dual solved problem
  228 simplex iterations in 0.00 seconds at time 0

Final objective                       : 5.175546651633665e+02
  Max primal violation      (abs/rel) :       0.0 /       0.0
  Max dual violation        (abs/rel) :       0.0 /       0.0
  Max complementarity viol. (abs/rel) :       0.0 /       0.0

Starting root cutting & heuristics
 
 Its Type    BestSoln    BestBound   Sols    Add    Del     Gap     GInf   Time
   1  K                 517.554665      0      2      0               14      0
   2  K                 517.554665      0      0      0               14      0
 
Cuts in the matrix         : 2
Cut elements in the matrix : 38

Starting tree search.
Deterministic mode with up to 12 running threads and up to 32 tasks.
Heap usage: 4229KB (peak 7260KB, 1597KB system)
 
    Node     BestSoln    BestBound   Sols Active  Depth     Gap     GInf   Time
       1                524.581409      0      2      1               14      0
*      1   524.581409   524.581409      1      2      2    0.00%       0      0
STOPPING - MIPRELSTOP target reached (MIPRELSTOP=0.0001  gap=2.16719e-16).
       2   524.581409   524.581409      1      2      2    0.00%       1      0
STOPPING - MIPRELSTOP target reached (MIPRELSTOP=0.0001  gap=2.16719e-16).
 *** Search completed ***
Uncrunching matrix
Final MIP objective                   : 5.245814092890029e+02
Final MIP bound                       : 5.245814092890027e+02
  Solution time / primaldual integral :         0s/ 98.467651%
  Number of solutions found / nodes   :         1 /         2
  Max primal violation      (abs/rel) :       0.0 /       0.0
  Max integer violation     (abs    ) :       0.0
